0 79 
1 78 
2 77 
3 76 
4 75 
5 75 
6 74 
7 74 
8 74 
9 75 
10 73 
11 73 
12 73 
13 71 
14 70 
15 68 
16 65 
17 66 
18 66 
19 66 
20 67 
21 67 
22 67 
23 65 
24 63 
25 62 
26 62 
27 61 
28 61 
29 60 
30 58 
31 56 
32 54 
33 53 
34 53 
35 51 
36 53 
37 54 
38 52 
39 49 
40 49 
41 50 
42 50 
43 50 
44 49 
45 47 
46 44 
47 44 
48 42 
49 42 
50 40 
51 39 
52 36 
53 35 
54 34 
55 33 
56 32 
57 30 
58 29 
59 29 
60 27 
61 27 
62 24 
63 21 
64 22 
65 21 
66 19 
67 20 
68 20 
69 19 
70 19 
71 20 
72 18 
73 16 
74 16 
75 14 
76 12 
77 11 
78 9 
79 8 
80 8 
81 8 
82 6 
83 6 
84 5 
85 4 
86 2 
87 1 
88 0 
89 0 

